20 15 2
5 1 1 1 1 3 4 1 8 7 1 10 1 1 12 5 
6 2 1 4 2 1 2 3 2 4 3 1 5 1 3 6 8 7 7 8 9 1 10 3 2 11 1 12 1 
5 1 2 4 1 4 1 1 6 6 2 9 4 10 3 2 11 4 12 4 
6 1 1 3 1 4 4 1 5 2 2 6 10 7 7 2 10 4 9 3 2 12 4 11 3 
7 1 2 3 1 3 3 1 5 5 3 7 8 6 6 8 8 2 9 5 10 3 2 12 2 11 4 1 15 5 
6 2 2 2 1 3 2 4 1 3 3 1 5 1 3 8 9 7 7 6 7 2 9 1 10 2 1 12 3 
7 1 2 1 1 3 1 1 5 3 3 7 9 8 10 6 8 2 9 2 10 1 2 12 3 11 3 1 15 1 
5 2 1 5 2 3 2 3 2 4 2 2 7 6 8 9 2 9 2 10 3 2 12 4 11 5 
5 1 1 2 2 3 5 4 3 2 6 8 7 8 1 9 4 1 12 1 
6 2 1 1 2 4 2 4 5 3 4 1 5 4 3 8 10 7 6 6 7 2 9 1 10 4 2 12 5 11 4 
6 1 1 2 1 3 3 1 5 5 3 6 8 7 9 8 8 1 10 4 1 12 5 
6 1 1 3 1 4 5 1 5 5 1 7 9 1 10 1 1 12 3 
5 1 2 1 1 3 2 3 6 9 7 9 8 10 2 9 1 10 5 1 11 5 
6 2 1 4 2 5 2 4 3 3 3 1 5 2 2 8 8 6 7 1 9 1 2 11 4 12 2 
5 1 1 5 2 3 5 4 2 3 6 10 7 8 8 6 1 10 4 1 11 2 
6 1 1 1 1 4 4 1 5 2 3 8 9 7 9 6 6 1 10 5 1 12 2 
7 1 1 5 2 4 5 3 5 1 5 3 1 8 10 1 9 1 2 11 2 12 2 3 15 1 14 4 13 4 
7 1 2 3 1 4 3 1 5 1 3 6 6 7 9 8 7 1 10 5 2 11 4 12 4 1 13 4 
5 1 2 4 2 4 2 3 4 3 8 7 7 6 6 7 2 10 4 9 1 2 12 1 11 3 
7 1 2 3 1 4 2 1 5 5 2 6 6 8 6 1 9 1 1 12 3 3 14 2 13 1 15 3 
